solving instance mcnd nodes c100_400_10_V_L_10 3 6 log
Couenne 0.5.8 -- an Open-Source solver for Mixed Integer Nonlinear Optimization
Mailing list: couenne@list.coin-or.org
Instructions: http://www.coin-or.org/Couenne
couenne: 
ANALYSIS TEST: Reformulating problem: 4.6 seconds
NLP0012I 
              Num      Status      Obj             It       time                 Location
NLP0014I             1         OPT 4343.2115      140 192.45322
NLP0014I             2      INFEAS 8.9999996      198 196.91997
Loaded instance "/tmp/jl_AKu3tT/model.nl"
Constraints:         6500
Variables:           5100 (500 integer)
Auxiliaries:         4611 (1 integer)

Coin0506I Presolve 6953 (-248) rows, 5090 (-4621) columns and 31543 (-4853) elements
Clp0006I 0  Obj 269.62211 Primal inf 137.29813 (29) Dual inf 1.3544238e+12 (143)
Clp0006I 218  Obj 407.02211 Primal inf 73.627215 (19) Dual inf 2.929544e+12 (436)
Clp0006I 432  Obj 1291.0605 Primal inf 48.762678 (14) Dual inf 1.1981752e+12 (336)
Clp0006I 646  Obj 2790.8504 Primal inf 16.323283 (6) Dual inf 2.0425671e+12 (731)
Clp0006I 860  Obj 3342.3041 Primal inf 8.1673335 (5) Dual inf 2.6513783e+12 (848)
Clp0006I 1074  Obj 3841.7901 Dual inf 17373.07 (577)
Clp0006I 1288  Obj 3841.7901 Dual inf 33813.068 (841)
Clp0006I 1502  Obj 3841.7901 Dual inf 19100.522 (735)
Clp0006I 1700  Obj 3808.2201 Primal inf 3.9788341e-07 (2) Dual inf 2.1504815e+13 (1267)
Clp0006I 1914  Obj 3738.1562 Primal inf 4.2548266e-06 (12) Dual inf 5.6765172e+13 (1344)
Clp0006I 2128  Obj 3738.156 Primal inf 1.7424667e-05 (41) Dual inf 1.1267177e+14 (1314)
Clp0006I 2335  Obj 3649.8613 Primal inf 1.2168843e-06 (4) Dual inf 1.1707896e+13 (1134)
Clp0006I 2531  Obj 3635.7652 Primal inf 2.7617948e-05 (36) Dual inf 5.9973582e+14 (1395)
Clp0006I 2741  Obj 3625.4108 Primal inf 8.7224836e-08 (3) Dual inf 2.7571585e+12 (927)
Clp0006I 2955  Obj 3617.7747 Primal inf 7.7129708e-05 (81) Dual inf 2.2006376e+14 (1486)
Clp0006I 3169  Obj 3617.7748 Primal inf 6.6732373e-08 (1) Dual inf 2.9172833e+12 (1028)
Clp0006I 3375  Obj 3617.7745 Primal inf 2.2149946e-06 (8) Dual inf 8.2910527e+12 (1343)
Clp0006I 3557  Obj 3617.7743 Primal inf 1.7652681e-06 (15) Dual inf 2.3110899e+13 (1310)
Clp0006I 3771  Obj 3617.7743 Primal inf 3.8445685e-06 (10) Dual inf 3.3964424e+13 (1231)
Clp0006I 3955  Obj 3611.9501 Primal inf 5.3322898e-08 (2) Dual inf 3.4317678e+12 (1179)
Clp0006I 4122  Obj 3611.95 Primal inf 9.2162942e-08 (3) Dual inf 4.7687342e+12 (1281)
Clp0006I 4291  Obj 3611.9496 Primal inf 1.4832798e-05 (35) Dual inf 1.2310103e+14 (1223)
Clp0006I 4489  Obj 3611.9492 Primal inf 6.2795594e-07 (6) Dual inf 7.2162097e+12 (1255)
Clp0006I 4674  Obj 3611.9487 Primal inf 8.4424991e-08 (2) Dual inf 4.3297043e+12 (1153)
Clp0006I 4878  Obj 3611.9488 Primal inf 1.7227604e-05 (40) Dual inf 1.1658484e+14 (1314)
Clp0006I 5092  Obj 3611.9486 Primal inf 2.3475749e-07 (2) Dual inf 5.5232636e+11 (989)
Clp0006I 5295  Obj 3600.9991 Primal inf 2.1407886e-06 (5) Dual inf 9.6997131e+12 (1494)
Clp0006I 5489  Obj 3600.9985 Dual inf 144925.91 (1292)
Clp0006I 5668  Obj 3593.0116 Dual inf 10669.252 (648)
Clp0006I 5819  Obj 3593.0115 Dual inf 6468.0185 (600)
Clp0006I 5986  Obj 3590.4872 Dual inf 4718.61 (551)
Clp0006I 6153  Obj 3590.4872 Primal inf 1.8927243e-05 (25) Dual inf 8.778095e+13 (1300)
Clp0006I 6351  Obj 3590.4871 Primal inf 4.0042383e-08 (1) Dual inf 3.2141325e+12 (1123)
Clp0006I 6529  Obj 3588.2608 Primal inf 4.6911773e-07 (1) Dual inf 1.2613248e+12 (1028)
Clp0006I 6698  Obj 3588.2606 Dual inf 1512.3115 (352)
Clp0006I 6868  Obj 3584.8542 Primal inf 6.7547575e-06 (20) Dual inf 2.2137204e+13 (1278)
Clp0006I 7062  Obj 3584.8542 Dual inf 64.249055 (77)
Clp0006I 7174  Obj 3584.8505
Clp0000I Optimal - objective value 3584.8505
Clp0000I Optimal - objective value 3584.8515
Clp0032I Optimal objective 3584.851535 - 7174 iterations time 4.392, Presolve 0.04
Clp0000I Optimal - objective value 3584.8515
NLP Heuristic: time limit reached.
Clp0000I Optimal - objective value 3584.8515
Optimality Based BT: 0 improved bounds
Probing: 0 improved bounds
Cbc0013I At root node, 0 cuts changed objective from 3584.8515 to 3584.8515 in 1 passes
Cbc0014I Cut generator 0 (Couenne convexifier cuts) - 0 row cuts average 0.0 elements, 1 column cuts (1 active)
Cbc0020I Exiting on maximum time
Cbc0005I Partial search - best objective 1e+50 (best possible 3584.8515), took 0 iterations and 0 nodes (3083.50 seconds)
Cbc0035I Maximum depth 0, 0 variables fixed on reduced cost

 	"Not finished"

Linearization cuts added at root node:       7201
Linearization cuts added in total:           7201  (separation time: 0.305878s)
Total solve time:                         3087.89s (3087.89s in branch-and-bound)
Lower bound:                              3584.85
Upper bound:                                  inf  (gap: --)
Branch-and-bound nodes:                         0
Stats: /tmp/jl_AKu3tT/model.nl 5100 [var]  500 [int] 6500 [con] 4611 [aux]   7201 [root]     7201 [tot] 0.305878 [sep]  3087.89 [time]   3087.9 [bb]         3.584852e+03 [lower]         1.000000e+50 [upper]       0 [nodes]
Performance of                           FBBT:	   0.674386s,        4 runs. fix:          2 shrnk:   0.721224 ubd:          0 2ubd:          0 infeas:          0
Performance of                           OBBT:	    493.311s,        1 runs. fix:          0 shrnk:          0 ubd:          0 2ubd:          0 infeas:          0
ERROR: LoadError: MathOptInterface.GetAttributeNotAllowed{MathOptInterface.ObjectiveBound}: Getting attribute MathOptInterface.ObjectiveBound() cannot be performed: AmplNLWriter.Optimizer does not support getting the attribute MathOptInterface.ObjectiveBound(). You may want to use a `CachingOptimizer` in `AUTOMATIC` mode or you may need to call `reset_optimizer` before doing this operation if the `CachingOptimizer` is in `MANUAL` mode.
Stacktrace:
  [1] get_fallback(model::AmplNLWriter.Optimizer, attr::MathOptInterface.ObjectiveBound)
    @ MathOptInterface ~/.julia/packages/MathOptInterface/gLl4d/src/attributes.jl:409
  [2] get(::AmplNLWriter.Optimizer, ::MathOptInterface.ObjectiveBound)
    @ MathOptInterface ~/.julia/packages/MathOptInterface/gLl4d/src/attributes.jl:390
  [3] _get_model_attribute(model::MathOptInterface.Utilities.CachingOptimizer{AmplNLWriter.Optimizer, MathOptInterface.Utilities.UniversalFallback{MathOptInterface.Utilities.Model{Float64}}}, attr::MathOptInterface.ObjectiveBound)
    @ MathOptInterface.Utilities ~/.julia/packages/MathOptInterface/gLl4d/src/Utilities/cachingoptimizer.jl:865
  [4] get(model::MathOptInterface.Utilities.CachingOptimizer{AmplNLWriter.Optimizer, MathOptInterface.Utilities.UniversalFallback{MathOptInterface.Utilities.Model{Float64}}}, attr::MathOptInterface.ObjectiveBound)
    @ MathOptInterface.Utilities ~/.julia/packages/MathOptInterface/gLl4d/src/Utilities/cachingoptimizer.jl:900
  [5] get(b::MathOptInterface.Bridges.LazyBridgeOptimizer{MathOptInterface.Utilities.CachingOptimizer{AmplNLWriter.Optimizer, MathOptInterface.Utilities.UniversalFallback{MathOptInterface.Utilities.Model{Float64}}}}, attr::MathOptInterface.ObjectiveBound)
    @ MathOptInterface.Bridges ~/.julia/packages/MathOptInterface/gLl4d/src/Bridges/bridge_optimizer.jl:889
  [6] _get_model_attribute(model::MathOptInterface.Utilities.CachingOptimizer{MathOptInterface.Bridges.LazyBridgeOptimizer{MathOptInterface.Utilities.CachingOptimizer{AmplNLWriter.Optimizer, MathOptInterface.Utilities.UniversalFallback{MathOptInterface.Utilities.Model{Float64}}}}, MathOptInterface.Utilities.UniversalFallback{MathOptInterface.Utilities.Model{Float64}}}, attr::MathOptInterface.ObjectiveBound)
    @ MathOptInterface.Utilities ~/.julia/packages/MathOptInterface/gLl4d/src/Utilities/cachingoptimizer.jl:865
  [7] get(model::MathOptInterface.Utilities.CachingOptimizer{MathOptInterface.Bridges.LazyBridgeOptimizer{MathOptInterface.Utilities.CachingOptimizer{AmplNLWriter.Optimizer, MathOptInterface.Utilities.UniversalFallback{MathOptInterface.Utilities.Model{Float64}}}}, MathOptInterface.Utilities.UniversalFallback{MathOptInterface.Utilities.Model{Float64}}}, attr::MathOptInterface.ObjectiveBound)
    @ MathOptInterface.Utilities ~/.julia/packages/MathOptInterface/gLl4d/src/Utilities/cachingoptimizer.jl:900
  [8] _moi_get_result(model::MathOptInterface.Utilities.CachingOptimizer{MathOptInterface.Bridges.LazyBridgeOptimizer{MathOptInterface.Utilities.CachingOptimizer{AmplNLWriter.Optimizer, MathOptInterface.Utilities.UniversalFallback{MathOptInterface.Utilities.Model{Float64}}}}, MathOptInterface.Utilities.UniversalFallback{MathOptInterface.Utilities.Model{Float64}}}, args::MathOptInterface.ObjectiveBound)
    @ JuMP ~/.julia/packages/JuMP/i68GU/src/optimizer_interface.jl:1053
  [9] get(model::JuMP.Model, attr::MathOptInterface.ObjectiveBound)
    @ JuMP ~/.julia/packages/JuMP/i68GU/src/optimizer_interface.jl:1073
 [10] objective_bound(model::JuMP.Model)
    @ JuMP ~/.julia/packages/JuMP/i68GU/src/objective.jl:78
 [11] nl_mcnd(ptype::String, graph::String, commodities::String, nodes::String, incr::Int64, cost::Symbol, solver::AmplNLWriter.Optimizer, solver_params::Vector{Any}; solve::Bool, write_nl::Bool)
    @ IterativePWLB ~/git/ipwlb/code/sources/IterativePWLB/src/nlsolver.jl:1192
 [12] top-level scope
    @ ~/git/ipwlb/code/sources/IterativePWLB/test/couenne/mcnd_nodes/script.jl:18
in expression starting at /home/ccontard/git/ipwlb/code/sources/IterativePWLB/test/couenne/mcnd_nodes/script.jl:18
